9028
0 1 0 0 0 1 0 0 1 0 0 0 1 0 1 0 1 0 0 0 0 1 0 0 0 0 0 0 1 0 
1 1 1 5 5 1 16 16 5 5 5 5 5 16 5 16 16 8 16 5 16 16 8 14 8 8 16 12 12 12 12 5 14 14 14 14 16 14 16 16 16 16 14 12 16 16 16 16 21 16 21 1 5 21 21 21 21 16 16 21 21 16 16 16 28 28 28 28 28 16 